
n_res = 6;
rcap = [103, 111, 101, 100, 706, 754];
rtype = [1, 1, 1, 1, 2, 2];
n_tasks = 50;
modes =  [{1, 2, 3}, {4, 5, 6}, {7, 8, 9}, {10, 11, 12}, {13, 14, 15}, {16, 17, 18}, {19, 20, 21}, {22, 23, 24}, {25, 26, 27}, {28, 29, 30}, {31, 32, 33}, {34, 35, 36}, {37, 38, 39}, {40, 41, 42}, {43, 44, 45}, {46, 47, 48}, {49, 50, 51}, {52, 53, 54}, {55, 56, 57}, {58, 59, 60}, {61, 62, 63}, {64, 65, 66}, {67, 68, 69}, {70, 71, 72}, {73, 74, 75}, {76, 77, 78}, {79, 80, 81}, {82, 83, 84}, {85, 86, 87}, {88, 89, 90}, {91, 92, 93}, {94, 95, 96}, {97, 98, 99}, {100, 101, 102}, {103, 104, 105}, {106, 107, 108}, {109, 110, 111}, {112, 113, 114}, {115, 116, 117}, {118, 119, 120}, {121, 122, 123}, {124, 125, 126}, {127, 128, 129}, {130, 131, 132}, {133, 134, 135}, {136, 137, 138}, {139, 140, 141}, {142, 143, 144}, {145, 146, 147}, {148, 149, 150}];
succ =  [{50, 45, 44, 33, 32, 31, 27, 26, 20, 14, 11}, {49, 46, 27, 23, 21, 19, 5}, {46, 45, 41, 40, 33, 30, 29, 26, 22, 21, 20, 17}, {47, 44, 41, 33, 29, 26, 20, 14}, {45, 44, 41, 40, 37, 31, 30, 29, 28, 26, 20}, {48, 46, 41, 40, 38, 26, 21, 20}, {48, 44, 41, 40, 39, 32, 30, 29, 21}, {47, 45, 22, 19}, {46, 44, 41, 40, 38, 37, 36, 28, 20}, {45, 44, 40, 38, 21, 20}, {46, 43, 41, 40, 39, 38, 29, 21}, {47, 45, 40, 39, 38, 37, 35, 30, 28}, {44, 43, 41, 40, 26, 21}, {46, 43, 42, 40, 39, 38, 37, 35, 28}, {43, 42, 39, 38, 35, 28, 26}, {45, 42, 41, 38, 31, 26}, {44, 43, 39, 37, 36, 31}, {42, 41, 40, 37, 35, 30}, {41, 40, 37, 35, 28}, {43, 42, 39, 35, 34}, {37, 36, 35, 28}, {44, 42, 36, 32}, {38, 37, 34, 30}, {35, 28, 26}, {41, 37, 29}, {36, 34}, {39, 37}, {34}, {34}, {36}, {35}, {38}, {39}, {}, {}, {}, {}, {}, {}, {}, {}, {}, {}, {}, {}, {}, {}, {}, {}, {}];
n_opt = 150;
dur = [7, 14, 22, 5, 15, 26, 15, 24, 27, 5, 6, 29, 10, 26, 27, 11, 15, 24, 3, 19, 29, 3, 15, 19, 3, 7, 17, 4, 13, 19, 11, 13, 16, 8, 11, 27, 2, 13, 21, 3, 8, 28, 4, 10, 23, 6, 21, 28, 3, 11, 17, 10, 18, 25, 5, 7, 25, 1, 11, 26, 15, 18, 23, 1, 6, 7, 3, 4, 13, 10, 20, 23, 1, 2, 20, 12, 29, 30, 14, 18, 20, 10, 21, 26, 10, 23, 28, 9, 13, 21, 8, 21, 25, 5, 12, 18, 9, 14, 16, 3, 21, 27, 9, 22, 25, 1, 18, 29, 21, 22, 23, 8, 9, 17, 1, 29, 30, 9, 11, 13, 9, 15, 23, 4, 8, 29, 16, 20, 21, 3, 6, 16, 4, 14, 26, 2, 9, 14, 11, 14, 19, 7, 25, 26, 6, 10, 27, 5, 12, 20];
rreq = [|16, 16, 15, 19, 10, 6, 25, 23, 18, 20, 18, 17, 19, 15, 13, 19, 17, 5, 9, 8, 8, 16, 16, 16, 20, 13, 8, 25, 22, 21, 14, 8, 4, 20, 20, 20, 8, 7, 4, 24, 23, 23, 22, 19, 17, 13, 11, 7, 13, 11, 11, 26, 25, 25, 30, 25, 23, 29, 24, 19, 17, 16, 16, 10, 10, 8, 15, 10, 7, 20, 15, 8, 8, 7, 6, 27, 22, 21, 29, 28, 27, 20, 14, 10, 16, 10, 8, 14, 14, 13, 12, 12, 12, 24, 18, 12, 22, 22, 19, 21, 21, 21, 25, 21, 21, 14, 13, 12, 27, 24, 24, 19, 17, 14, 29, 29, 28, 23, 15, 12, 26, 17, 12, 27, 17, 8, 17, 16, 10, 4, 2, 1, 23, 18, 16, 15, 13, 3, 27, 22, 19, 15, 11, 10, 18, 12, 5, 28, 15, 12
 |20, 16, 12, 21, 16, 9, 16, 13, 10, 26, 18, 9, 10, 9, 8, 19, 14, 9, 25, 22, 21, 12, 12, 12, 17, 17, 3, 18, 15, 14, 19, 19, 19, 14, 9, 7, 23, 22, 18, 12, 9, 4, 23, 20, 18, 19, 15, 8, 24, 12, 10, 24, 15, 10, 11, 7, 6, 23, 12, 8, 23, 14, 10, 23, 21, 20, 16, 14, 11, 6, 5, 5, 30, 30, 30, 4, 2, 2, 30, 29, 29, 10, 7, 7, 24, 17, 11, 28, 24, 22, 26, 23, 21, 19, 15, 12, 20, 18, 16, 19, 18, 18, 23, 19, 15, 19, 16, 14, 9, 9, 8, 15, 14, 13, 9, 6, 5, 30, 24, 23, 24, 19, 18, 24, 24, 17, 26, 14, 9, 21, 13, 6, 14, 12, 12, 26, 25, 23, 18, 15, 14, 23, 22, 22, 8, 5, 2, 29, 27, 27
 |18, 13, 7, 21, 18, 13, 25, 16, 13, 27, 25, 20, 20, 20, 17, 26, 26, 26, 10, 8, 6, 6, 6, 5, 26, 21, 14, 22, 20, 16, 24, 12, 7, 16, 13, 7, 18, 18, 14, 12, 8, 6, 25, 18, 14, 23, 20, 16, 27, 26, 25, 29, 28, 28, 20, 19, 18, 25, 19, 16, 22, 21, 18, 24, 10, 10, 25, 21, 16, 8, 8, 7, 19, 15, 14, 10, 8, 7, 14, 10, 6, 24, 24, 23, 27, 23, 19, 18, 9, 9, 12, 11, 9, 19, 14, 10, 17, 15, 11, 21, 21, 12, 23, 17, 10, 24, 20, 19, 14, 12, 8, 20, 18, 16, 9, 5, 5, 29, 28, 27, 13, 7, 3, 20, 12, 9, 11, 10, 10, 29, 23, 15, 16, 15, 15, 27, 21, 19, 21, 16, 16, 8, 8, 8, 17, 11, 9, 26, 23, 15
 |21, 16, 12, 23, 20, 11, 25, 15, 11, 16, 14, 11, 6, 5, 4, 15, 13, 9, 9, 9, 6, 7, 6, 5, 14, 13, 13, 15, 11, 10, 6, 4, 2, 16, 9, 7, 19, 19, 17, 25, 21, 21, 20, 9, 9, 28, 27, 24, 30, 29, 27, 24, 20, 11, 21, 17, 14, 10, 9, 9, 20, 11, 7, 10, 5, 3, 4, 3, 2, 12, 4, 2, 20, 13, 13, 18, 15, 13, 16, 6, 4, 26, 17, 7, 6, 5, 4, 29, 25, 19, 29, 22, 12, 28, 26, 26, 19, 18, 18, 17, 12, 7, 26, 19, 9, 29, 28, 27, 27, 22, 17, 10, 5, 2, 17, 14, 12, 9, 8, 8, 27, 27, 24, 24, 17, 13, 19, 17, 12, 7, 5, 1, 15, 9, 6, 16, 15, 14, 29, 26, 25, 21, 15, 9, 19, 18, 17, 13, 13, 11
 |14, 13, 10, 3, 2, 1, 8, 7, 7, 12, 9, 3, 19, 16, 10, 10, 7, 5, 27, 19, 7, 25, 21, 15, 19, 13, 11, 20, 9, 7, 8, 6, 2, 11, 11, 11, 19, 15, 10, 9, 9, 7, 22, 20, 20, 12, 10, 9, 17, 14, 12, 19, 18, 11, 20, 19, 16, 19, 16, 9, 17, 16, 15, 15, 14, 13, 9, 8, 6, 25, 11, 2, 20, 13, 12, 19, 15, 8, 20, 10, 7, 12, 7, 4, 22, 21, 21, 9, 7, 6, 22, 21, 19, 25, 23, 21, 24, 24, 22, 21, 19, 16, 16, 14, 10, 20, 17, 6, 22, 18, 13, 20, 9, 1, 19, 13, 13, 10, 6, 3, 4, 3, 2, 24, 17, 12, 25, 20, 16, 18, 18, 4, 18, 15, 15, 24, 21, 16, 17, 15, 11, 17, 16, 15, 26, 24, 23, 23, 22, 21
 |7, 5, 4, 15, 12, 5, 13, 12, 9, 22, 16, 10, 24, 22, 22, 24, 17, 11, 17, 16, 9, 19, 16, 15, 15, 8, 5, 13, 8, 3, 21, 17, 17, 23, 17, 6, 18, 15, 4, 13, 11, 7, 24, 22, 21, 17, 16, 16, 26, 24, 24, 29, 29, 29, 19, 18, 16, 14, 11, 8, 22, 21, 20, 13, 10, 4, 27, 23, 22, 24, 23, 22, 24, 22, 20, 2, 2, 2, 16, 6, 1, 27, 15, 7, 21, 19, 11, 4, 3, 2, 17, 15, 14, 23, 20, 16, 23, 19, 11, 3, 1, 1, 19, 12, 9, 22, 16, 15, 22, 20, 10, 20, 15, 11, 17, 17, 10, 22, 16, 8, 18, 18, 17, 6, 5, 5, 27, 24, 21, 28, 25, 23, 15, 15, 14, 8, 6, 1, 24, 21, 21, 14, 8, 6, 21, 19, 19, 19, 15, 3|];